c number of pigeons = 12 ; number of holes = 11
p cnf 132 1464
1 2 3 4 5 6 7 8 9 10 11 0
12 13 14 15 16 17 18 19 20 21 22 0
23 24 25 26 27 28 29 30 31 32 33 0
34 35 36 37 38 39 40 41 42 43 44 0
45 46 47 48 49 50 51 52 53 54 55 0
56 57 58 59 60 61 62 63 64 65 66 0
67 68 69 70 71 72 73 74 75 76 77 0
78 79 80 81 82 83 84 85 86 87 88 0
89 90 91 92 93 94 95 96 97 98 99 0
100 101 102 103 104 105 106 107 108 109 110 0
111 112 113 114 115 116 117 118 119 120 121 0
122 123 124 125 126 127 128 129 130 131 132 0
-1 -12 0
-1 -23 0
-1 -34 0
-1 -45 0
-1 -56 0
-1 -67 0
-1 -78 0
-1 -89 0
-1 -100 0
-1 -111 0
-1 -122 0
-12 -1 0
-12 -23 0
-12 -34 0
-12 -45 0
-12 -56 0
-12 -67 0
-12 -78 0
-12 -89 0
-12 -100 0
-12 -111 0
-12 -122 0
-23 -1 0
-23 -12 0
-23 -34 0
-23 -45 0
-23 -56 0
-23 -67 0
-23 -78 0
-23 -89 0
-23 -100 0
-23 -111 0
-23 -122 0
-34 -1 0
-34 -12 0
-34 -23 0
-34 -45 0
-34 -56 0
-34 -67 0
-34 -78 0
-34 -89 0
-34 -100 0
-34 -111 0
-34 -122 0
-45 -1 0
-45 -12 0
-45 -23 0
-45 -34 0
-45 -56 0
-45 -67 0
-45 -78 0
-45 -89 0
-45 -100 0
-45 -111 0
-45 -122 0
-56 -1 0
-56 -12 0
-56 -23 0
-56 -34 0
-56 -45 0
-56 -67 0
-56 -78 0
-56 -89 0
-56 -100 0
-56 -111 0
-56 -122 0
-67 -1 0
-67 -12 0
-67 -23 0
-67 -34 0
-67 -45 0
-67 -56 0
-67 -78 0
-67 -89 0
-67 -100 0
-67 -111 0
-67 -122 0
-78 -1 0
-78 -12 0
-78 -23 0
-78 -34 0
-78 -45 0
-78 -56 0
-78 -67 0
-78 -89 0
-78 -100 0
-78 -111 0
-78 -122 0
-89 -1 0
-89 -12 0
-89 -23 0
-89 -34 0
-89 -45 0
-89 -56 0
-89 -67 0
-89 -78 0
-89 -100 0
-89 -111 0
-89 -122 0
-100 -1 0
-100 -12 0
-100 -23 0
-100 -34 0
-100 -45 0
-100 -56 0
-100 -67 0
-100 -78 0
-100 -89 0
-100 -111 0
-100 -122 0
-111 -1 0
-111 -12 0
-111 -23 0
-111 -34 0
-111 -45 0
-111 -56 0
-111 -67 0
-111 -78 0
-111 -89 0
-111 -100 0
-111 -122 0
-122 -1 0
-122 -12 0
-122 -23 0
-122 -34 0
-122 -45 0
-122 -56 0
-122 -67 0
-122 -78 0
-122 -89 0
-122 -100 0
-122 -111 0
-2 -13 0
-2 -24 0
-2 -35 0
-2 -46 0
-2 -57 0
-2 -68 0
-2 -79 0
-2 -90 0
-2 -101 0
-2 -112 0
-2 -123 0
-13 -2 0
-13 -24 0
-13 -35 0
-13 -46 0
-13 -57 0
-13 -68 0
-13 -79 0
-13 -90 0
-13 -101 0
-13 -112 0
-13 -123 0
-24 -2 0
-24 -13 0
-24 -35 0
-24 -46 0
-24 -57 0
-24 -68 0
-24 -79 0
-24 -90 0
-24 -101 0
-24 -112 0
-24 -123 0
-35 -2 0
-35 -13 0
-35 -24 0
-35 -46 0
-35 -57 0
-35 -68 0
-35 -79 0
-35 -90 0
-35 -101 0
-35 -112 0
-35 -123 0
-46 -2 0
-46 -13 0
-46 -24 0
-46 -35 0
-46 -57 0
-46 -68 0
-46 -79 0
-46 -90 0
-46 -101 0
-46 -112 0
-46 -123 0
-57 -2 0
-57 -13 0
-57 -24 0
-57 -35 0
-57 -46 0
-57 -68 0
-57 -79 0
-57 -90 0
-57 -101 0
-57 -112 0
-57 -123 0
-68 -2 0
-68 -13 0
-68 -24 0
-68 -35 0
-68 -46 0
-68 -57 0
-68 -79 0
-68 -90 0
-68 -101 0
-68 -112 0
-68 -123 0
-79 -2 0
-79 -13 0
-79 -24 0
-79 -35 0
-79 -46 0
-79 -57 0
-79 -68 0
-79 -90 0
-79 -101 0
-79 -112 0
-79 -123 0
-90 -2 0
-90 -13 0
-90 -24 0
-90 -35 0
-90 -46 0
-90 -57 0
-90 -68 0
-90 -79 0
-90 -101 0
-90 -112 0
-90 -123 0
-101 -2 0
-101 -13 0
-101 -24 0
-101 -35 0
-101 -46 0
-101 -57 0
-101 -68 0
-101 -79 0
-101 -90 0
-101 -112 0
-101 -123 0
-112 -2 0
-112 -13 0
-112 -24 0
-112 -35 0
-112 -46 0
-112 -57 0
-112 -68 0
-112 -79 0
-112 -90 0
-112 -101 0
-112 -123 0
-123 -2 0
-123 -13 0
-123 -24 0
-123 -35 0
-123 -46 0
-123 -57 0
-123 -68 0
-123 -79 0
-123 -90 0
-123 -101 0
-123 -112 0
-3 -14 0
-3 -25 0
-3 -36 0
-3 -47 0
-3 -58 0
-3 -69 0
-3 -80 0
-3 -91 0
-3 -102 0
-3 -113 0
-3 -124 0
-14 -3 0
-14 -25 0
-14 -36 0
-14 -47 0
-14 -58 0
-14 -69 0
-14 -80 0
-14 -91 0
-14 -102 0
-14 -113 0
-14 -124 0
-25 -3 0
-25 -14 0
-25 -36 0
-25 -47 0
-25 -58 0
-25 -69 0
-25 -80 0
-25 -91 0
-25 -102 0
-25 -113 0
-25 -124 0
-36 -3 0
-36 -14 0
-36 -25 0
-36 -47 0
-36 -58 0
-36 -69 0
-36 -80 0
-36 -91 0
-36 -102 0
-36 -113 0
-36 -124 0
-47 -3 0
-47 -14 0
-47 -25 0
-47 -36 0
-47 -58 0
-47 -69 0
-47 -80 0
-47 -91 0
-47 -102 0
-47 -113 0
-47 -124 0
-58 -3 0
-58 -14 0
-58 -25 0
-58 -36 0
-58 -47 0
-58 -69 0
-58 -80 0
-58 -91 0
-58 -102 0
-58 -113 0
-58 -124 0
-69 -3 0
-69 -14 0
-69 -25 0
-69 -36 0
-69 -47 0
-69 -58 0
-69 -80 0
-69 -91 0
-69 -102 0
-69 -113 0
-69 -124 0
-80 -3 0
-80 -14 0
-80 -25 0
-80 -36 0
-80 -47 0
-80 -58 0
-80 -69 0
-80 -91 0
-80 -102 0
-80 -113 0
-80 -124 0
-91 -3 0
-91 -14 0
-91 -25 0
-91 -36 0
-91 -47 0
-91 -58 0
-91 -69 0
-91 -80 0
-91 -102 0
-91 -113 0
-91 -124 0
-102 -3 0
-102 -14 0
-102 -25 0
-102 -36 0
-102 -47 0
-102 -58 0
-102 -69 0
-102 -80 0
-102 -91 0
-102 -113 0
-102 -124 0
-113 -3 0
-113 -14 0
-113 -25 0
-113 -36 0
-113 -47 0
-113 -58 0
-113 -69 0
-113 -80 0
-113 -91 0
-113 -102 0
-113 -124 0
-124 -3 0
-124 -14 0
-124 -25 0
-124 -36 0
-124 -47 0
-124 -58 0
-124 -69 0
-124 -80 0
-124 -91 0
-124 -102 0
-124 -113 0
-4 -15 0
-4 -26 0
-4 -37 0
-4 -48 0
-4 -59 0
-4 -70 0
-4 -81 0
-4 -92 0
-4 -103 0
-4 -114 0
-4 -125 0
-15 -4 0
-15 -26 0
-15 -37 0
-15 -48 0
-15 -59 0
-15 -70 0
-15 -81 0
-15 -92 0
-15 -103 0
-15 -114 0
-15 -125 0
-26 -4 0
-26 -15 0
-26 -37 0
-26 -48 0
-26 -59 0
-26 -70 0
-26 -81 0
-26 -92 0
-26 -103 0
-26 -114 0
-26 -125 0
-37 -4 0
-37 -15 0
-37 -26 0
-37 -48 0
-37 -59 0
-37 -70 0
-37 -81 0
-37 -92 0
-37 -103 0
-37 -114 0
-37 -125 0
-48 -4 0
-48 -15 0
-48 -26 0
-48 -37 0
-48 -59 0
-48 -70 0
-48 -81 0
-48 -92 0
-48 -103 0
-48 -114 0
-48 -125 0
-59 -4 0
-59 -15 0
-59 -26 0
-59 -37 0
-59 -48 0
-59 -70 0
-59 -81 0
-59 -92 0
-59 -103 0
-59 -114 0
-59 -125 0
-70 -4 0
-70 -15 0
-70 -26 0
-70 -37 0
-70 -48 0
-70 -59 0
-70 -81 0
-70 -92 0
-70 -103 0
-70 -114 0
-70 -125 0
-81 -4 0
-81 -15 0
-81 -26 0
-81 -37 0
-81 -48 0
-81 -59 0
-81 -70 0
-81 -92 0
-81 -103 0
-81 -114 0
-81 -125 0
-92 -4 0
-92 -15 0
-92 -26 0
-92 -37 0
-92 -48 0
-92 -59 0
-92 -70 0
-92 -81 0
-92 -103 0
-92 -114 0
-92 -125 0
-103 -4 0
-103 -15 0
-103 -26 0
-103 -37 0
-103 -48 0
-103 -59 0
-103 -70 0
-103 -81 0
-103 -92 0
-103 -114 0
-103 -125 0
-114 -4 0
-114 -15 0
-114 -26 0
-114 -37 0
-114 -48 0
-114 -59 0
-114 -70 0
-114 -81 0
-114 -92 0
-114 -103 0
-114 -125 0
-125 -4 0
-125 -15 0
-125 -26 0
-125 -37 0
-125 -48 0
-125 -59 0
-125 -70 0
-125 -81 0
-125 -92 0
-125 -103 0
-125 -114 0
-5 -16 0
-5 -27 0
-5 -38 0
-5 -49 0
-5 -60 0
-5 -71 0
-5 -82 0
-5 -93 0
-5 -104 0
-5 -115 0
-5 -126 0
-16 -5 0
-16 -27 0
-16 -38 0
-16 -49 0
-16 -60 0
-16 -71 0
-16 -82 0
-16 -93 0
-16 -104 0
-16 -115 0
-16 -126 0
-27 -5 0
-27 -16 0
-27 -38 0
-27 -49 0
-27 -60 0
-27 -71 0
-27 -82 0
-27 -93 0
-27 -104 0
-27 -115 0
-27 -126 0
-38 -5 0
-38 -16 0
-38 -27 0
-38 -49 0
-38 -60 0
-38 -71 0
-38 -82 0
-38 -93 0
-38 -104 0
-38 -115 0
-38 -126 0
-49 -5 0
-49 -16 0
-49 -27 0
-49 -38 0
-49 -60 0
-49 -71 0
-49 -82 0
-49 -93 0
-49 -104 0
-49 -115 0
-49 -126 0
-60 -5 0
-60 -16 0
-60 -27 0
-60 -38 0
-60 -49 0
-60 -71 0
-60 -82 0
-60 -93 0
-60 -104 0
-60 -115 0
-60 -126 0
-71 -5 0
-71 -16 0
-71 -27 0
-71 -38 0
-71 -49 0
-71 -60 0
-71 -82 0
-71 -93 0
-71 -104 0
-71 -115 0
-71 -126 0
-82 -5 0
-82 -16 0
-82 -27 0
-82 -38 0
-82 -49 0
-82 -60 0
-82 -71 0
-82 -93 0
-82 -104 0
-82 -115 0
-82 -126 0
-93 -5 0
-93 -16 0
-93 -27 0
-93 -38 0
-93 -49 0
-93 -60 0
-93 -71 0
-93 -82 0
-93 -104 0
-93 -115 0
-93 -126 0
-104 -5 0
-104 -16 0
-104 -27 0
-104 -38 0
-104 -49 0
-104 -60 0
-104 -71 0
-104 -82 0
-104 -93 0
-104 -115 0
-104 -126 0
-115 -5 0
-115 -16 0
-115 -27 0
-115 -38 0
-115 -49 0
-115 -60 0
-115 -71 0
-115 -82 0
-115 -93 0
-115 -104 0
-115 -126 0
-126 -5 0
-126 -16 0
-126 -27 0
-126 -38 0
-126 -49 0
-126 -60 0
-126 -71 0
-126 -82 0
-126 -93 0
-126 -104 0
-126 -115 0
-6 -17 0
-6 -28 0
-6 -39 0
-6 -50 0
-6 -61 0
-6 -72 0
-6 -83 0
-6 -94 0
-6 -105 0
-6 -116 0
-6 -127 0
-17 -6 0
-17 -28 0
-17 -39 0
-17 -50 0
-17 -61 0
-17 -72 0
-17 -83 0
-17 -94 0
-17 -105 0
-17 -116 0
-17 -127 0
-28 -6 0
-28 -17 0
-28 -39 0
-28 -50 0
-28 -61 0
-28 -72 0
-28 -83 0
-28 -94 0
-28 -105 0
-28 -116 0
-28 -127 0
-39 -6 0
-39 -17 0
-39 -28 0
-39 -50 0
-39 -61 0
-39 -72 0
-39 -83 0
-39 -94 0
-39 -105 0
-39 -116 0
-39 -127 0
-50 -6 0
-50 -17 0
-50 -28 0
-50 -39 0
-50 -61 0
-50 -72 0
-50 -83 0
-50 -94 0
-50 -105 0
-50 -116 0
-50 -127 0
-61 -6 0
-61 -17 0
-61 -28 0
-61 -39 0
-61 -50 0
-61 -72 0
-61 -83 0
-61 -94 0
-61 -105 0
-61 -116 0
-61 -127 0
-72 -6 0
-72 -17 0
-72 -28 0
-72 -39 0
-72 -50 0
-72 -61 0
-72 -83 0
-72 -94 0
-72 -105 0
-72 -116 0
-72 -127 0
-83 -6 0
-83 -17 0
-83 -28 0
-83 -39 0
-83 -50 0
-83 -61 0
-83 -72 0
-83 -94 0
-83 -105 0
-83 -116 0
-83 -127 0
-94 -6 0
-94 -17 0
-94 -28 0
-94 -39 0
-94 -50 0
-94 -61 0
-94 -72 0
-94 -83 0
-94 -105 0
-94 -116 0
-94 -127 0
-105 -6 0
-105 -17 0
-105 -28 0
-105 -39 0
-105 -50 0
-105 -61 0
-105 -72 0
-105 -83 0
-105 -94 0
-105 -116 0
-105 -127 0
-116 -6 0
-116 -17 0
-116 -28 0
-116 -39 0
-116 -50 0
-116 -61 0
-116 -72 0
-116 -83 0
-116 -94 0
-116 -105 0
-116 -127 0
-127 -6 0
-127 -17 0
-127 -28 0
-127 -39 0
-127 -50 0
-127 -61 0
-127 -72 0
-127 -83 0
-127 -94 0
-127 -105 0
-127 -116 0
-7 -18 0
-7 -29 0
-7 -40 0
-7 -51 0
-7 -62 0
-7 -73 0
-7 -84 0
-7 -95 0
-7 -106 0
-7 -117 0
-7 -128 0
-18 -7 0
-18 -29 0
-18 -40 0
-18 -51 0
-18 -62 0
-18 -73 0
-18 -84 0
-18 -95 0
-18 -106 0
-18 -117 0
-18 -128 0
-29 -7 0
-29 -18 0
-29 -40 0
-29 -51 0
-29 -62 0
-29 -73 0
-29 -84 0
-29 -95 0
-29 -106 0
-29 -117 0
-29 -128 0
-40 -7 0
-40 -18 0
-40 -29 0
-40 -51 0
-40 -62 0
-40 -73 0
-40 -84 0
-40 -95 0
-40 -106 0
-40 -117 0
-40 -128 0
-51 -7 0
-51 -18 0
-51 -29 0
-51 -40 0
-51 -62 0
-51 -73 0
-51 -84 0
-51 -95 0
-51 -106 0
-51 -117 0
-51 -128 0
-62 -7 0
-62 -18 0
-62 -29 0
-62 -40 0
-62 -51 0
-62 -73 0
-62 -84 0
-62 -95 0
-62 -106 0
-62 -117 0
-62 -128 0
-73 -7 0
-73 -18 0
-73 -29 0
-73 -40 0
-73 -51 0
-73 -62 0
-73 -84 0
-73 -95 0
-73 -106 0
-73 -117 0
-73 -128 0
-84 -7 0
-84 -18 0
-84 -29 0
-84 -40 0
-84 -51 0
-84 -62 0
-84 -73 0
-84 -95 0
-84 -106 0
-84 -117 0
-84 -128 0
-95 -7 0
-95 -18 0
-95 -29 0
-95 -40 0
-95 -51 0
-95 -62 0
-95 -73 0
-95 -84 0
-95 -106 0
-95 -117 0
-95 -128 0
-106 -7 0
-106 -18 0
-106 -29 0
-106 -40 0
-106 -51 0
-106 -62 0
-106 -73 0
-106 -84 0
-106 -95 0
-106 -117 0
-106 -128 0
-117 -7 0
-117 -18 0
-117 -29 0
-117 -40 0
-117 -51 0
-117 -62 0
-117 -73 0
-117 -84 0
-117 -95 0
-117 -106 0
-117 -128 0
-128 -7 0
-128 -18 0
-128 -29 0
-128 -40 0
-128 -51 0
-128 -62 0
-128 -73 0
-128 -84 0
-128 -95 0
-128 -106 0
-128 -117 0
-8 -19 0
-8 -30 0
-8 -41 0
-8 -52 0
-8 -63 0
-8 -74 0
-8 -85 0
-8 -96 0
-8 -107 0
-8 -118 0
-8 -129 0
-19 -8 0
-19 -30 0
-19 -41 0
-19 -52 0
-19 -63 0
-19 -74 0
-19 -85 0
-19 -96 0
-19 -107 0
-19 -118 0
-19 -129 0
-30 -8 0
-30 -19 0
-30 -41 0
-30 -52 0
-30 -63 0
-30 -74 0
-30 -85 0
-30 -96 0
-30 -107 0
-30 -118 0
-30 -129 0
-41 -8 0
-41 -19 0
-41 -30 0
-41 -52 0
-41 -63 0
-41 -74 0
-41 -85 0
-41 -96 0
-41 -107 0
-41 -118 0
-41 -129 0
-52 -8 0
-52 -19 0
-52 -30 0
-52 -41 0
-52 -63 0
-52 -74 0
-52 -85 0
-52 -96 0
-52 -107 0
-52 -118 0
-52 -129 0
-63 -8 0
-63 -19 0
-63 -30 0
-63 -41 0
-63 -52 0
-63 -74 0
-63 -85 0
-63 -96 0
-63 -107 0
-63 -118 0
-63 -129 0
-74 -8 0
-74 -19 0
-74 -30 0
-74 -41 0
-74 -52 0
-74 -63 0
-74 -85 0
-74 -96 0
-74 -107 0
-74 -118 0
-74 -129 0
-85 -8 0
-85 -19 0
-85 -30 0
-85 -41 0
-85 -52 0
-85 -63 0
-85 -74 0
-85 -96 0
-85 -107 0
-85 -118 0
-85 -129 0
-96 -8 0
-96 -19 0
-96 -30 0
-96 -41 0
-96 -52 0
-96 -63 0
-96 -74 0
-96 -85 0
-96 -107 0
-96 -118 0
-96 -129 0
-107 -8 0
-107 -19 0
-107 -30 0
-107 -41 0
-107 -52 0
-107 -63 0
-107 -74 0
-107 -85 0
-107 -96 0
-107 -118 0
-107 -129 0
-118 -8 0
-118 -19 0
-118 -30 0
-118 -41 0
-118 -52 0
-118 -63 0
-118 -74 0
-118 -85 0
-118 -96 0
-118 -107 0
-118 -129 0
-129 -8 0
-129 -19 0
-129 -30 0
-129 -41 0
-129 -52 0
-129 -63 0
-129 -74 0
-129 -85 0
-129 -96 0
-129 -107 0
-129 -118 0
-9 -20 0
-9 -31 0
-9 -42 0
-9 -53 0
-9 -64 0
-9 -75 0
-9 -86 0
-9 -97 0
-9 -108 0
-9 -119 0
-9 -130 0
-20 -9 0
-20 -31 0
-20 -42 0
-20 -53 0
-20 -64 0
-20 -75 0
-20 -86 0
-20 -97 0
-20 -108 0
-20 -119 0
-20 -130 0
-31 -9 0
-31 -20 0
-31 -42 0
-31 -53 0
-31 -64 0
-31 -75 0
-31 -86 0
-31 -97 0
-31 -108 0
-31 -119 0
-31 -130 0
-42 -9 0
-42 -20 0
-42 -31 0
-42 -53 0
-42 -64 0
-42 -75 0
-42 -86 0
-42 -97 0
-42 -108 0
-42 -119 0
-42 -130 0
-53 -9 0
-53 -20 0
-53 -31 0
-53 -42 0
-53 -64 0
-53 -75 0
-53 -86 0
-53 -97 0
-53 -108 0
-53 -119 0
-53 -130 0
-64 -9 0
-64 -20 0
-64 -31 0
-64 -42 0
-64 -53 0
-64 -75 0
-64 -86 0
-64 -97 0
-64 -108 0
-64 -119 0
-64 -130 0
-75 -9 0
-75 -20 0
-75 -31 0
-75 -42 0
-75 -53 0
-75 -64 0
-75 -86 0
-75 -97 0
-75 -108 0
-75 -119 0
-75 -130 0
-86 -9 0
-86 -20 0
-86 -31 0
-86 -42 0
-86 -53 0
-86 -64 0
-86 -75 0
-86 -97 0
-86 -108 0
-86 -119 0
-86 -130 0
-97 -9 0
-97 -20 0
-97 -31 0
-97 -42 0
-97 -53 0
-97 -64 0
-97 -75 0
-97 -86 0
-97 -108 0
-97 -119 0
-97 -130 0
-108 -9 0
-108 -20 0
-108 -31 0
-108 -42 0
-108 -53 0
-108 -64 0
-108 -75 0
-108 -86 0
-108 -97 0
-108 -119 0
-108 -130 0
-119 -9 0
-119 -20 0
-119 -31 0
-119 -42 0
-119 -53 0
-119 -64 0
-119 -75 0
-119 -86 0
-119 -97 0
-119 -108 0
-119 -130 0
-130 -9 0
-130 -20 0
-130 -31 0
-130 -42 0
-130 -53 0
-130 -64 0
-130 -75 0
-130 -86 0
-130 -97 0
-130 -108 0
-130 -119 0
-10 -21 0
-10 -32 0
-10 -43 0
-10 -54 0
-10 -65 0
-10 -76 0
-10 -87 0
-10 -98 0
-10 -109 0
-10 -120 0
-10 -131 0
-21 -10 0
-21 -32 0
-21 -43 0
-21 -54 0
-21 -65 0
-21 -76 0
-21 -87 0
-21 -98 0
-21 -109 0
-21 -120 0
-21 -131 0
-32 -10 0
-32 -21 0
-32 -43 0
-32 -54 0
-32 -65 0
-32 -76 0
-32 -87 0
-32 -98 0
-32 -109 0
-32 -120 0
-32 -131 0
-43 -10 0
-43 -21 0
-43 -32 0
-43 -54 0
-43 -65 0
-43 -76 0
-43 -87 0
-43 -98 0
-43 -109 0
-43 -120 0
-43 -131 0
-54 -10 0
-54 -21 0
-54 -32 0
-54 -43 0
-54 -65 0
-54 -76 0
-54 -87 0
-54 -98 0
-54 -109 0
-54 -120 0
-54 -131 0
-65 -10 0
-65 -21 0
-65 -32 0
-65 -43 0
-65 -54 0
-65 -76 0
-65 -87 0
-65 -98 0
-65 -109 0
-65 -120 0
-65 -131 0
-76 -10 0
-76 -21 0
-76 -32 0
-76 -43 0
-76 -54 0
-76 -65 0
-76 -87 0
-76 -98 0
-76 -109 0
-76 -120 0
-76 -131 0
-87 -10 0
-87 -21 0
-87 -32 0
-87 -43 0
-87 -54 0
-87 -65 0
-87 -76 0
-87 -98 0
-87 -109 0
-87 -120 0
-87 -131 0
-98 -10 0
-98 -21 0
-98 -32 0
-98 -43 0
-98 -54 0
-98 -65 0
-98 -76 0
-98 -87 0
-98 -109 0
-98 -120 0
-98 -131 0
-109 -10 0
-109 -21 0
-109 -32 0
-109 -43 0
-109 -54 0
-109 -65 0
-109 -76 0
-109 -87 0
-109 -98 0
-109 -120 0
-109 -131 0
-120 -10 0
-120 -21 0
-120 -32 0
-120 -43 0
-120 -54 0
-120 -65 0
-120 -76 0
-120 -87 0
-120 -98 0
-120 -109 0
-120 -131 0
-131 -10 0
-131 -21 0
-131 -32 0
-131 -43 0
-131 -54 0
-131 -65 0
-131 -76 0
-131 -87 0
-131 -98 0
-131 -109 0
-131 -120 0
-11 -22 0
-11 -33 0
-11 -44 0
-11 -55 0
-11 -66 0
-11 -77 0
-11 -88 0
-11 -99 0
-11 -110 0
-11 -121 0
-11 -132 0
-22 -11 0
-22 -33 0
-22 -44 0
-22 -55 0
-22 -66 0
-22 -77 0
-22 -88 0
-22 -99 0
-22 -110 0
-22 -121 0
-22 -132 0
-33 -11 0
-33 -22 0
-33 -44 0
-33 -55 0
-33 -66 0
-33 -77 0
-33 -88 0
-33 -99 0
-33 -110 0
-33 -121 0
-33 -132 0
-44 -11 0
-44 -22 0
-44 -33 0
-44 -55 0
-44 -66 0
-44 -77 0
-44 -88 0
-44 -99 0
-44 -110 0
-44 -121 0
-44 -132 0
-55 -11 0
-55 -22 0
-55 -33 0
-55 -44 0
-55 -66 0
-55 -77 0
-55 -88 0
-55 -99 0
-55 -110 0
-55 -121 0
-55 -132 0
-66 -11 0
-66 -22 0
-66 -33 0
-66 -44 0
-66 -55 0
-66 -77 0
-66 -88 0
-66 -99 0
-66 -110 0
-66 -121 0
-66 -132 0
-77 -11 0
-77 -22 0
-77 -33 0
-77 -44 0
-77 -55 0
-77 -66 0
-77 -88 0
-77 -99 0
-77 -110 0
-77 -121 0
-77 -132 0
-88 -11 0
-88 -22 0
-88 -33 0
-88 -44 0
-88 -55 0
-88 -66 0
-88 -77 0
-88 -99 0
-88 -110 0
-88 -121 0
-88 -132 0
-99 -11 0
-99 -22 0
-99 -33 0
-99 -44 0
-99 -55 0
-99 -66 0
-99 -77 0
-99 -88 0
-99 -110 0
-99 -121 0
-99 -132 0
-110 -11 0
-110 -22 0
-110 -33 0
-110 -44 0
-110 -55 0
-110 -66 0
-110 -77 0
-110 -88 0
-110 -99 0
-110 -121 0
-110 -132 0
-121 -11 0
-121 -22 0
-121 -33 0
-121 -44 0
-121 -55 0
-121 -66 0
-121 -77 0
-121 -88 0
-121 -99 0
-121 -110 0
-121 -132 0
-132 -11 0
-132 -22 0
-132 -33 0
-132 -44 0
-132 -55 0
-132 -66 0
-132 -77 0
-132 -88 0
-132 -99 0
-132 -110 0
-132 -121 0